decision_x4=[0,2];
decision_x5=[0,2];
decision_x6=[0,2];
decision_x7=[0,2];
decision_x8=[0,2];
decision_x9=[0,2];
decision_x10=[0,2];
decision_x1=[0,2];
decision_x2=[0,2];
decision_x3=[0,2];
random_y1=[0,2];
random_y2=[0,2];
constraint_x3_x1=[
0,0,2.4|
0,1,3.8|
0,2,7|
1,0,6.5|
1,1,5.2|
1,2,8.6|
2,0,0.28|
2,1,9.1|
2,2,0.65|
];
constraint_x4_x1=[
0,0,4.1|
0,1,10|
0,2,3|
1,0,7.7|
1,1,3|
1,2,3|
2,0,1|
2,1,6.5|
2,2,6.2|
];
constraint_x5_x2=[
0,0,4|
0,1,3.5|
0,2,1.6|
1,0,3.1|
1,1,3.8|
1,2,4.5|
2,0,2.9|
2,1,6.6|
2,2,7.2|
];
constraint_x5_x3=[
0,0,7.5|
0,1,0.33|
0,2,4.4|
1,0,1.2|
1,1,10|
1,2,7.4|
2,0,5.1|
2,1,9.4|
2,2,6.5|
];
constraint_x6_x1=[
0,0,6.5|
0,1,0.63|
0,2,7.2|
1,0,3|
1,1,2.7|
1,2,5.4|
2,0,2.1|
2,1,7.7|
2,2,6.4|
];
constraint_x6_x4=[
0,0,2.6|
0,1,7.7|
0,2,9.2|
1,0,8.1|
1,1,9.5|
1,2,7.7|
2,0,8.1|
2,1,7.2|
2,2,7.1|
];
constraint_x7_x1=[
0,0,3.8|
0,1,2.5|
0,2,9.3|
1,0,4|
1,1,5.9|
1,2,6.7|
2,0,6|
2,1,0.18|
2,2,4.7|
];
constraint_x7_x3=[
0,0,9.1|
0,1,8.4|
0,2,8.3|
1,0,6.6|
1,1,9.2|
1,2,2.2|
2,0,3|
2,1,5.2|
2,2,7.3|
];
constraint_x7_x4=[
0,0,7.9|
0,1,5.3|
0,2,7.1|
1,0,6.1|
1,1,0.69|
1,2,1.3|
2,0,4.7|
2,1,6.6|
2,2,9.1|
];
constraint_x8_x1=[
0,0,4.8|
0,1,3.9|
0,2,5.7|
1,0,5.1|
1,1,3.1|
1,2,2.3|
2,0,4.8|
2,1,4.4|
2,2,7.7|
];
constraint_x8_x2=[
0,0,6.3|
0,1,0.17|
0,2,7.5|
1,0,8.1|
1,1,8.8|
1,2,3.3|
2,0,4.6|
2,1,5.3|
2,2,4.7|
];
constraint_x8_x4=[
0,0,4.5|
0,1,8.6|
0,2,9|
1,0,2.4|
1,1,7.2|
1,2,9.2|
2,0,4.6|
2,1,9.4|
2,2,3.9|
];
constraint_x8_x5=[
0,0,0.51|
0,1,5.7|
0,2,2.1|
1,0,3.4|
1,1,1.3|
1,2,4.1|
2,0,5|
2,1,9.9|
2,2,8.8|
];
constraint_x8_x7=[
0,0,6.3|
0,1,4.2|
0,2,1.1|
1,0,2|
1,1,4.7|
1,2,6.1|
2,0,4.6|
2,1,5.2|
2,2,5.2|
];
constraint_x9_x1=[
0,0,2|
0,1,3.5|
0,2,6.3|
1,0,9.9|
1,1,8.2|
1,2,4.7|
2,0,2.6|
2,1,9.5|
2,2,2.5|
];
constraint_x9_x2=[
0,0,4|
0,1,0.84|
0,2,4.3|
1,0,8|
1,1,3.4|
1,2,10|
2,0,8.1|
2,1,8.4|
2,2,2.3|
];
constraint_x9_x3=[
0,0,6.1|
0,1,9|
0,2,0.15|
1,0,6.7|
1,1,1|
1,2,9.2|
2,0,5.8|
2,1,0.1|
2,2,4.2|
];
constraint_x9_x4=[
0,0,7.5|
0,1,4.6|
0,2,5.2|
1,0,9.3|
1,1,4.3|
1,2,4.8|
2,0,9.5|
2,1,7.5|
2,2,6.2|
];
constraint_x9_x6=[
0,0,0.34|
0,1,0.16|
0,2,7.8|
1,0,1.8|
1,1,6.3|
1,2,9.7|
2,0,6.6|
2,1,1.5|
2,2,2.6|
];
constraint_x10_x2=[
0,0,4.8|
0,1,9.1|
0,2,10|
1,0,2.1|
1,1,1.4|
1,2,3.4|
2,0,3.4|
2,1,1.6|
2,2,5.3|
];
constraint_x10_x3=[
0,0,4.7|
0,1,4.8|
0,2,4.6|
1,0,5.8|
1,1,9.5|
1,2,8|
2,0,9.4|
2,1,7.1|
2,2,2.7|
];
constraint_x10_x5=[
0,0,9.3|
0,1,1.5|
0,2,9.1|
1,0,0.93|
1,1,0.29|
1,2,5.3|
2,0,0.11|
2,1,3.7|
2,2,5.6|
];
constraint_x10_x7=[
0,0,7.5|
0,1,5.5|
0,2,0.94|
1,0,0.18|
1,1,8|
1,2,6.2|
2,0,1.1|
2,1,8|
2,2,9.6|
];
constraint_x1_y1=[
0,0,1.5|
0,1,4.5|
0,2,4.7|
1,0,5.9|
1,1,9.4|
1,2,7.3|
2,0,5.7|
2,1,9.1|
2,2,5.7|
];
constraint_x2_y2=[
0,0,0.58|
0,1,6.8|
0,2,7.6|
1,0,0.13|
1,1,6.9|
1,2,2.7|
2,0,7.3|
2,1,1.3|
2,2,9.4|
];
initial_distribution_y1=[0.49,0.067,0.44];
initial_distribution_y2=[0.47,0.08,0.45];
transition_y1=[
0.095,0.45,0.45|
0.47,0.25,0.27|
0.34,0.32,0.34|
];
transition_y2=[
0.021,0.074,0.91|
0.037,0.43,0.54|
0.64,0.18,0.19|
];
